(set-logic ALL)
(declare-const labels String)
(assert (< 0 (str.len labels)))
(assert (not (str.contains (str.at labels 0) ".")))
(assert (not (= (str.at labels 0) "django.contrib.admin")))
(assert (not (= (str.at labels 0) "django.contrib.auth")))
(assert (not (= (str.at labels 0) "django.contrib.contenttypes")))
(assert (not (= (str.at labels 0) "django.contrib.sessions")))
(assert (not (= (str.at labels 0) "django.contrib.messages")))
(assert (not (= (str.at labels 0) "django.contrib.staticfiles")))
(assert (not (= (str.at labels 0) "django.contrib.sites")))
(assert (not (= (str.at labels 0) "django.contrib.flatpages")))
(assert (not (= (str.at labels 0) "django.contrib.redirects")))
(assert (not (= (str.at labels 0) "tests.absolute_url_overrides")))
(assert (not (= (str.at labels 0) "tests.admin_autodiscover")))
(assert (not (= (str.at labels 0) "tests.admin_changelist")))
(assert (not (= (str.at labels 0) "tests.admin_checks")))
(assert (not (= (str.at labels 0) "tests.admin_custom_urls")))
(assert (not (= (str.at labels 0) "tests.admin_default_site")))
(assert (not (= (str.at labels 0) "tests.admin_docs")))
(assert (not (= (str.at labels 0) "tests.admin_filters")))
(assert (not (= (str.at labels 0) "tests.admin_inlines")))
(assert (not (= (str.at labels 0) "tests.admin_ordering")))
(assert (not (= (str.at labels 0) "tests.admin_registration")))
(assert (not (= (str.at labels 0) "tests.admin_scripts")))
(assert (not (= (str.at labels 0) "tests.admin_utils")))
(assert (not (= (str.at labels 0) "tests.admin_views")))
(assert (not (= (str.at labels 0) "tests.admin_widgets")))
(assert (not (= (str.at labels 0) "tests.aggregation")))
(assert (not (= (str.at labels 0) "tests.aggregation_regress")))
(assert (not (= (str.at labels 0) "tests.annotations")))
(assert (not (= (str.at labels 0) "tests.app_loading")))
(assert (not (= (str.at labels 0) "tests.apps")))
(assert (not (= (str.at labels 0) "tests.asgi")))
(assert (not (= (str.at labels 0) "tests.async")))
(assert (not (= (str.at labels 0) "tests.auth_tests")))
(assert (not (= (str.at labels 0) "tests.backends")))
(assert (not (= (str.at labels 0) "tests.base")))
(assert (not (= (str.at labels 0) "tests.bash_completion")))
(assert (not (= (str.at labels 0) "tests.basic")))
(assert (not (= (str.at labels 0) "tests.builtin_server")))
(assert (not (= (str.at labels 0) "tests.bulk_create")))
(assert (not (= (str.at labels 0) "tests.cache")))
(assert (not (= (str.at labels 0) "tests.check_framework")))
(assert (not (= (str.at labels 0) "tests.conditional_processing")))
(assert (not (= (str.at labels 0) "tests.constraints")))
(assert (not (= (str.at labels 0) "tests.contenttypes_tests")))
(assert (not (= (str.at labels 0) "tests.context_processors")))
(assert (not (= (str.at labels 0) "tests.csrf_tests")))
(assert (not (= (str.at labels 0) "tests.custom_columns")))
(assert (not (= (str.at labels 0) "tests.custom_lookups")))
(assert (not (= (str.at labels 0) "tests.custom_managers")))
(assert (not (= (str.at labels 0) "tests.custom_methods")))
(assert (not (= (str.at labels 0) "tests.custom_migration_operations")))
(assert (not (= (str.at labels 0) "tests.custom_pk")))
(assert (not (= (str.at labels 0) "tests.datatypes")))
(assert (not (= (str.at labels 0) "tests.dates")))
(assert (not (= (str.at labels 0) "tests.datetimes")))
(assert (not (= (str.at labels 0) "tests.db_functions")))
(assert (not (= (str.at labels 0) "tests.db_typecasts")))
(assert (not (= (str.at labels 0) "tests.db_utils")))
(assert (not (= (str.at labels 0) "tests.dbshell")))
(assert (not (= (str.at labels 0) "tests.decorators")))
(assert (not (= (str.at labels 0) "tests.defer")))
(assert (not (= (str.at labels 0) "tests.defer_regress")))
(assert (not (= (str.at labels 0) "tests.delete")))
(assert (not (= (str.at labels 0) "tests.delete_regress")))
(assert (not (= (str.at labels 0) "tests.deprecation")))
(assert (not (= (str.at labels 0) "tests.dispatch")))
(assert (not (= (str.at labels 0) "tests.distinct_on_fields")))
(assert (not (= (str.at labels 0) "tests.empty")))
(assert (not (= (str.at labels 0) "tests.empty_models")))
(assert (not (= (str.at labels 0) "tests.expressions")))
(assert (not (= (str.at labels 0) "tests.expressions_case")))
(assert (not (= (str.at labels 0) "tests.expressions_window")))
(assert (not (= (str.at labels 0) "tests.extra_regress")))
(assert (not (= (str.at labels 0) "tests.field_deconstruction")))
(assert (not (= (str.at labels 0) "tests.field_defaults")))
(assert (not (= (str.at labels 0) "tests.field_subclassing")))
(assert (not (= (str.at labels 0) "tests.file_storage")))
(assert (not (= (str.at labels 0) "tests.file_uploads")))
(assert (not (= (str.at labels 0) "tests.files")))
(assert (not (= (str.at labels 0) "tests.filtered_relation")))
(assert (not (= (str.at labels 0) "tests.fixtures")))
(assert (not (= (str.at labels 0) "tests.fixtures_model_package")))
(assert (not (= (str.at labels 0) "tests.fixtures_regress")))
(assert (not (= (str.at labels 0) "tests.flatpages_tests")))
(assert (not (= (str.at labels 0) "tests.force_insert_update")))
(assert (not (= (str.at labels 0) "tests.foreign_object")))
(assert (not (= (str.at labels 0) "tests.forms_tests")))
(assert (not (= (str.at labels 0) "tests.from_db_value")))
(assert (not (= (str.at labels 0) "tests.generic_inline_admin")))
(assert (not (= (str.at labels 0) "tests.generic_relations")))
(assert (not (= (str.at labels 0) "tests.generic_relations_regress")))
(assert (not (= (str.at labels 0) "tests.generic_views")))
(assert (not (= (str.at labels 0) "tests.get_earliest_or_latest")))
(assert (not (= (str.at labels 0) "tests.get_object_or_404")))
(assert (not (= (str.at labels 0) "tests.get_or_create")))
(assert (not (= (str.at labels 0) "tests.gis_tests")))
(assert (not (= (str.at labels 0) "tests.handlers")))
(assert (not (= (str.at labels 0) "tests.httpwrappers")))
(assert (not (= (str.at labels 0) "tests.humanize_tests")))
(assert (not (= (str.at labels 0) "tests.i18n")))
(assert (not (= (str.at labels 0) "tests.import_error_package")))
(assert (not (= (str.at labels 0) "tests.indexes")))
(assert (not (= (str.at labels 0) "tests.inline_formsets")))
(assert (not (= (str.at labels 0) "tests.inspectdb")))
(assert (not (= (str.at labels 0) "tests.introspection")))
(assert (not (= (str.at labels 0) "tests.invalid_models_tests")))
(assert (not (= (str.at labels 0) "tests.known_related_objects")))
(assert (not (= (str.at labels 0) "tests.logging_tests")))
(assert (not (= (str.at labels 0) "tests.lookup")))
(assert (not (= (str.at labels 0) "tests.m2m_and_m2o")))
(assert (not (= (str.at labels 0) "tests.m2m_intermediary")))
(assert (not (= (str.at labels 0) "tests.m2m_multiple")))
(assert (not (= (str.at labels 0) "tests.m2m_recursive")))
(assert (not (= (str.at labels 0) "tests.m2m_regress")))
(assert (not (= (str.at labels 0) "tests.m2m_signals")))
(assert (not (= (str.at labels 0) "tests.m2m_through")))
(assert (not (= (str.at labels 0) "tests.m2m_through_regress")))
(assert (not (= (str.at labels 0) "tests.m2o_recursive")))
(assert (not (= (str.at labels 0) "tests.mail")))
(assert (not (= (str.at labels 0) "tests.managers_regress")))
(assert (not (= (str.at labels 0) "tests.many_to_many")))
(assert (not (= (str.at labels 0) "tests.many_to_one")))
(assert (not (= (str.at labels 0) "tests.many_to_one_null")))
(assert (not (= (str.at labels 0) "tests.max_lengths")))
(assert (not (= (str.at labels 0) "tests.messages_tests")))
(assert (not (= (str.at labels 0) "tests.middleware")))
(assert (not (= (str.at labels 0) "tests.middleware_exceptions")))
(assert (not (= (str.at labels 0) "tests.migrate_signals")))
(assert (not (= (str.at labels 0) "tests.migration_test_data_persistence")))
(assert (not (= (str.at labels 0) "tests.migrations")))
(assert (not (= (str.at labels 0) "tests.migrations2")))
(assert (not (= (str.at labels 0) "tests.model_enums")))
(assert (not (= (str.at labels 0) "tests.model_fields")))
(assert (not (= (str.at labels 0) "tests.model_forms")))
(assert (not (= (str.at labels 0) "tests.model_formsets")))
(assert (= (str.at labels 0) "tests.model_formsets_regress"))
(check-sat)
(get-value (labels))
